10
-1 67 34 69 24 78 58 62 64 5
45 -1 27 61 91 95 42 27 36 91
4 2 -1 92 82 21 16 18 95 47
26 71 38 -1 12 67 99 35 94 3
11 22 33 73 -1 41 11 53 68 47
44 62 57 37 59 -1 41 29 78 16
35 90 42 88 6 40 -1 64 48 46
5 90 29 70 50 6 1 -1 48 29
23 84 54 56 40 66 76 31 -1 44
39 26 23 37 38 18 82 29 41 -1
